p tw 41 44
1 2
2 13
3 4
4 5
5 6
6 7
6 34
7 8
8 9
9 34
10 11
11 12
12 14
13 24
14 15
14 34
15 16
16 17
17 18
18 19
19 20
20 21
21 22
22 23
23 25
24 35
25 26
26 27
27 28
28 29
29 30
30 31
31 32
32 33
33 34
34 36
35 37
37 38
37 10
38 39
39 40
40 41
41 3
41 10
